(set-logic ALL)
(declare-fun var0 () String)
(assert (str.in_re var0 (re.++ (re.+ (re.* (str.to_re "00"))) (re.++ (re.union (re.union (str.to_re "1") (str.to_re "2")) (re.union (str.to_re "333") (str.to_re "444"))) (re.++ (re.+ (re.+ (str.to_re "5"))) (re.++ (re.+ (re.+ (str.to_re "6"))) (re.++ (re.union (re.* (str.to_re "777")) (re.* (str.to_re "8"))) (re.++ (re.+ (re.* (str.to_re "99"))) (re.++ (re.* (re.union (str.to_re "a") (str.to_re "b"))) (re.++ (re.+ (re.* (str.to_re "c"))) (re.++ (re.union (re.+ (str.to_re "ddd")) (re.+ (str.to_re "eee"))) (re.++ (re.union (re.union (str.to_re "f") (str.to_re "g")) (re.union (str.to_re "hhh") (str.to_re "i"))) (re.++ (re.union (re.+ (str.to_re "jjj")) (re.+ (str.to_re "kkk"))) (re.++ (re.+ (re.* (str.to_re "ll"))) (re.++ (re.* (re.* (str.to_re "m"))) (re.++ (re.union (re.union (str.to_re "n") (str.to_re "ooo")) (re.union (str.to_re "p") (str.to_re "qqq"))) (re.++ (re.* (re.union (str.to_re "rrr") (str.to_re "ss"))) (re.++ (re.* (re.union (str.to_re "tt") (str.to_re "u"))) (re.++ (re.* (re.+ (str.to_re "v"))) (re.++ (re.union (re.union (str.to_re "w") (str.to_re "x")) (re.union (str.to_re "y") (str.to_re "z"))) (re.++ (re.+ (re.* (str.to_re "AAA"))) (re.++ (re.+ (re.union (str.to_re "BB") (str.to_re "C"))) (re.++ (re.union (re.+ (str.to_re "DDD")) (re.+ (str.to_re "EE"))) (re.++ (re.+ (re.* (str.to_re "FFF"))) (re.++ (re.* (re.+ (str.to_re "GG"))) (re.++ (re.union (re.* (str.to_re "HHH")) (re.* (str.to_re "II"))) (re.++ (re.* (re.union (str.to_re "JJ") (str.to_re "KK"))) (re.++ (re.* (re.+ (str.to_re "LLL"))) (re.++ (re.union (re.+ (str.to_re "M")) (re.+ (str.to_re "N"))) (re.++ (re.union (re.union (str.to_re "O") (str.to_re "PP")) (re.union (str.to_re "QQ") (str.to_re "RRR"))) (re.++ (re.union (re.union (str.to_re "S") (str.to_re "TT")) (re.union (str.to_re "U") (str.to_re "VV"))) (re.++ (re.+ (re.* (str.to_re "WWW"))) (re.++ (re.* (re.union (str.to_re "X") (str.to_re "YYY"))) (re.++ (re.union (re.+ (str.to_re "Z")) (re.+ (str.to_re "!!!"))) (re.++ (re.* (re.+ (str.to_re """"))) (re.++ (re.* (re.union (str.to_re "##") (str.to_re "$$"))) (re.++ (re.+ (re.+ (str.to_re "%"))) (re.++ (re.* (re.union (str.to_re "&&") (str.to_re "'''"))) (re.++ (re.+ (re.+ (str.to_re "((("))) (re.++ (re.+ (re.* (str.to_re "))"))) (re.++ (re.union (re.union (str.to_re "***") (str.to_re "+++")) (re.union (str.to_re ",,") (str.to_re "--"))) (re.++ (re.+ (re.* (str.to_re "."))) (re.++ (re.union (re.union (str.to_re "//") (str.to_re ":")) (re.union (str.to_re ";") (str.to_re "<<"))) (re.++ (re.union (re.* (str.to_re "==")) (re.* (str.to_re ">"))) (re.++ (re.+ (re.union (str.to_re "??") (str.to_re "@@@"))) (re.++ (re.union (re.union (str.to_re "[") (str.to_re "\\\\\\")) (re.union (str.to_re "]") (str.to_re "^^^"))) (re.++ (re.union (re.* (str.to_re "__")) (re.* (str.to_re "```"))) (re.++ (re.+ (re.union (str.to_re "{{") (str.to_re "|||"))) (re.++ (re.union (re.+ (str.to_re "}")) (re.+ (str.to_re "~~"))) (re.++ (re.union (re.+ (str.to_re "00")) (re.+ (str.to_re "111"))) (re.++ (re.union (re.union (str.to_re "222") (str.to_re "33")) (re.union (str.to_re "44") (str.to_re "5"))) (re.++ (re.* (re.* (str.to_re "66"))) (re.++ (re.* (re.+ (str.to_re "77"))) (re.++ (re.* (re.+ (str.to_re "88"))) (re.++ (re.+ (re.+ (str.to_re "99"))) (re.++ (re.+ (re.* (str.to_re "aa"))) (re.++ (re.+ (re.union (str.to_re "b") (str.to_re "c"))) (re.++ (re.+ (re.+ (str.to_re "dd"))) (re.++ (re.+ (re.* (str.to_re "e"))) (re.++ (re.+ (re.* (str.to_re "f"))) (re.++ (re.* (re.* (str.to_re "g"))) (re.++ (re.* (re.union (str.to_re "h") (str.to_re "iii"))) (re.++ (re.+ (re.* (str.to_re "jj"))) (re.++ (re.+ (re.union (str.to_re "kkk") (str.to_re "lll"))) (re.++ (re.union (re.* (str.to_re "mm")) (re.* (str.to_re "nnn"))) (re.++ (re.+ (re.+ (str.to_re "ooo"))) (re.++ (re.* (re.union (str.to_re "p") (str.to_re "q"))) (re.++ (re.union (re.union (str.to_re "rr") (str.to_re "s")) (re.union (str.to_re "tt") (str.to_re "u"))) (re.++ (re.+ (re.union (str.to_re "vvv") (str.to_re "ww"))) (re.++ (re.union (re.* (str.to_re "x")) (re.* (str.to_re "yy"))) (re.++ (re.* (re.+ (str.to_re "z"))) (re.++ (re.+ (re.union (str.to_re "AAA") (str.to_re "B"))) (re.++ (re.* (re.+ (str.to_re "CCC"))) (re.++ (re.union (re.* (str.to_re "DD")) (re.* (str.to_re "EE"))) (re.++ (re.union (re.* (str.to_re "F")) (re.* (str.to_re "G"))) (re.++ (re.+ (re.+ (str.to_re "HH"))) (re.++ (re.union (re.* (str.to_re "III")) (re.* (str.to_re "J"))) (re.++ (re.* (re.+ (str.to_re "KK"))) (re.++ (re.+ (re.union (str.to_re "L") (str.to_re "MMM"))) (re.++ (re.* (re.* (str.to_re "NNN"))) (re.++ (re.union (re.union (str.to_re "OO") (str.to_re "P")) (re.union (str.to_re "Q") (str.to_re "R"))) (re.++ (re.* (re.union (str.to_re "S") (str.to_re "T"))) (re.++ (re.union (re.* (str.to_re "U")) (re.* (str.to_re "V"))) (re.++ (re.+ (re.+ (str.to_re "W"))) (re.++ (re.union (re.* (str.to_re "XX")) (re.* (str.to_re "YYY"))) (re.++ (re.+ (re.union (str.to_re "ZZZ") (str.to_re "!!!"))) (re.++ (re.* (re.* (str.to_re """"""))) (re.++ (re.* (re.+ (str.to_re "##"))) (re.++ (re.+ (re.union (str.to_re "$") (str.to_re "%"))) (re.++ (re.union (re.union (str.to_re "&&&") (str.to_re "'")) (re.union (str.to_re "((") (str.to_re ")"))) (re.++ (re.+ (re.* (str.to_re "*"))) (re.++ (re.+ (re.* (str.to_re "+++"))) (re.++ (re.union (re.* (str.to_re ",,")) (re.* (str.to_re "--"))) (re.++ (re.* (re.union (str.to_re "...") (str.to_re "/"))) (re.++ (re.union (re.union (str.to_re ":::") (str.to_re ";;;")) (re.union (str.to_re "<<") (str.to_re "="))) (re.++ (re.+ (re.+ (str.to_re ">"))) (re.++ (re.* (re.* (str.to_re "???"))) (re.++ (re.* (re.* (str.to_re "@"))) (re.++ (re.+ (re.* (str.to_re "[["))) (re.++ (re.* (re.union (str.to_re "\\\\") (str.to_re "]]]"))) (re.++ (re.union (re.* (str.to_re "^")) (re.* (str.to_re "__"))) (re.++ (re.union (re.union (str.to_re "`") (str.to_re "{")) (re.union (str.to_re "|||") (str.to_re "}"))) (re.++ (re.* (re.union (str.to_re "~~~") (str.to_re "0"))) (re.++ (re.+ (re.* (str.to_re "11"))) (re.++ (re.union (re.union (str.to_re "22") (str.to_re "3")) (re.union (str.to_re "44") (str.to_re "55"))) (re.++ (re.+ (re.+ (str.to_re "66"))) (re.++ (re.* (re.union (str.to_re "777") (str.to_re "8"))) (re.++ (re.* (re.* (str.to_re "99"))) (re.++ (re.union (re.+ (str.to_re "aaa")) (re.+ (str.to_re "bbb"))) (re.++ (re.union (re.union (str.to_re "ccc") (str.to_re "d")) (re.union (str.to_re "e") (str.to_re "f"))) (re.++ (re.+ (re.union (str.to_re "g") (str.to_re "hhh"))) (re.++ (re.* (re.union (str.to_re "ii") (str.to_re "jjj"))) (re.++ (re.union (re.+ (str.to_re "kk")) (re.+ (str.to_re "ll"))) (re.++ (re.union (re.union (str.to_re "mmm") (str.to_re "n")) (re.union (str.to_re "o") (str.to_re "ppp"))) (re.++ (re.* (re.+ (str.to_re "q"))) (re.++ (re.* (re.+ (str.to_re "rrr"))) (re.++ (re.* (re.+ (str.to_re "ss"))) (re.++ (re.+ (re.+ (str.to_re "ttt"))) (re.++ (re.* (re.union (str.to_re "u") (str.to_re "vvv"))) (re.++ (re.union (re.union (str.to_re "w") (str.to_re "xx")) (re.union (str.to_re "y") (str.to_re "zz"))) (re.++ (re.+ (re.+ (str.to_re "AA"))) (re.++ (re.union (re.union (str.to_re "BB") (str.to_re "C")) (re.union (str.to_re "D") (str.to_re "EE"))) (re.++ (re.* (re.union (str.to_re "FF") (str.to_re "GG"))) (re.++ (re.+ (re.* (str.to_re "HH"))) (re.++ (re.+ (re.+ (str.to_re "I"))) (re.++ (re.* (re.+ (str.to_re "J"))) (re.++ (re.* (re.union (str.to_re "KKK") (str.to_re "LLL"))) (re.++ (re.+ (re.+ (str.to_re "M"))) (re.++ (re.* (re.* (str.to_re "N"))) (re.++ (re.* (re.union (str.to_re "OOO") (str.to_re "PP"))) (re.++ (re.union (re.+ (str.to_re "QQ")) (re.+ (str.to_re "R"))) (re.++ (re.union (re.+ (str.to_re "SS")) (re.+ (str.to_re "TT"))) (re.++ (re.+ (re.union (str.to_re "UUU") (str.to_re "VVV"))) (re.++ (re.+ (re.union (str.to_re "WW") (str.to_re "XXX"))) (re.++ (re.* (re.* (str.to_re "Y"))) (re.++ (re.+ (re.* (str.to_re "ZZZ"))) (re.++ (re.* (re.* (str.to_re "!!"))) (re.++ (re.union (re.union (str.to_re """""") (str.to_re "##")) (re.union (str.to_re "$$$") (str.to_re "%%%"))) (re.++ (re.+ (re.+ (str.to_re "&&"))) (re.++ (re.union (re.* (str.to_re "'")) (re.* (str.to_re "("))) (re.++ (re.+ (re.* (str.to_re ")))"))) (re.++ (re.union (re.union (str.to_re "***") (str.to_re "++")) (re.union (str.to_re ",") (str.to_re "--"))) (re.++ (re.union (re.+ (str.to_re "...")) (re.+ (str.to_re "/"))) (re.++ (re.* (re.+ (str.to_re ":"))) (re.++ (re.union (re.union (str.to_re ";;") (str.to_re "<")) (re.union (str.to_re "===") (str.to_re ">>"))) (re.++ (re.union (re.+ (str.to_re "???")) (re.+ (str.to_re "@@@"))) (re.++ (re.* (re.+ (str.to_re "["))) (re.++ (re.* (re.+ (str.to_re "\\\\\\"))) (re.++ (re.union (re.+ (str.to_re "]]")) (re.+ (str.to_re "^^^"))) (re.++ (re.* (re.* (str.to_re "_"))) (re.++ (re.+ (re.* (str.to_re "``"))) (re.++ (re.+ (re.+ (str.to_re "{{{"))) (re.++ (re.+ (re.union (str.to_re "|||") (str.to_re "}}}"))) (re.++ (re.+ (re.union (str.to_re "~~") (str.to_re "00"))) (re.++ (re.+ (re.+ (str.to_re "111"))) (re.++ (re.* (re.union (str.to_re "22") (str.to_re "333"))) (re.++ (re.+ (re.* (str.to_re "44"))) (re.++ (re.* (re.* (str.to_re "55"))) (re.++ (re.+ (re.union (str.to_re "666") (str.to_re "777"))) (re.++ (re.+ (re.* (str.to_re "888"))) (re.++ (re.+ (re.* (str.to_re "999"))) (re.++ (re.union (re.+ (str.to_re "aa")) (re.+ (str.to_re "bb"))) (re.++ (re.+ (re.union (str.to_re "ccc") (str.to_re "dd"))) (re.++ (re.* (re.* (str.to_re "eee"))) (re.++ (re.+ (re.+ (str.to_re "f"))) (re.++ (re.+ (re.union (str.to_re "g") (str.to_re "hh"))) (re.++ (re.+ (re.union (str.to_re "iii") (str.to_re "jjj"))) (re.++ (re.union (re.union (str.to_re "kkk") (str.to_re "ll")) (re.union (str.to_re "mm") (str.to_re "nn"))) (re.++ (re.+ (re.+ (str.to_re "ooo"))) (re.++ (re.union (re.union (str.to_re "ppp") (str.to_re "q")) (re.union (str.to_re "rrr") (str.to_re "s"))) (re.++ (re.+ (re.+ (str.to_re "tt"))) (re.++ (re.union (re.* (str.to_re "uu")) (re.* (str.to_re "v"))) (re.++ (re.* (re.union (str.to_re "www") (str.to_re "xx"))) (re.++ (re.* (re.+ (str.to_re "yy"))) (re.++ (re.union (re.union (str.to_re "z") (str.to_re "AAA")) (re.union (str.to_re "BBB") (str.to_re "C"))) (re.++ (re.+ (re.+ (str.to_re "DD"))) (re.++ (re.+ (re.* (str.to_re "EEE"))) (re.++ (re.* (re.+ (str.to_re "F"))) (re.++ (re.union (re.+ (str.to_re "GG")) (re.+ (str.to_re "HHH"))) (re.++ (re.+ (re.union (str.to_re "I") (str.to_re "J"))) (re.++ (re.union (re.union (str.to_re "KKK") (str.to_re "L")) (re.union (str.to_re "MMM") (str.to_re "NN"))) (re.++ (re.+ (re.union (str.to_re "OO") (str.to_re "PP"))) (re.++ (re.union (re.* (str.to_re "QQQ")) (re.* (str.to_re "R"))) (re.++ (re.+ (re.union (str.to_re "S") (str.to_re "T"))) (re.++ (re.union (re.+ (str.to_re "UUU")) (re.+ (str.to_re "VV"))) (re.++ (re.* (re.union (str.to_re "W") (str.to_re "XX"))) (re.++ (re.union (re.* (str.to_re "YYY")) (re.* (str.to_re "ZZZ"))) (re.++ (re.union (re.* (str.to_re "!!!")) (re.* (str.to_re """"""))) (re.++ (re.* (re.union (str.to_re "##") (str.to_re "$$"))) (re.++ (re.union (re.* (str.to_re "%%%")) (re.* (str.to_re "&&&"))) (re.++ (re.union (re.+ (str.to_re "'''")) (re.+ (str.to_re "(("))) (re.* (re.* (str.to_re ")))"))))))))))))))))))))))))))))))))))))))))))))))))))))))))))))))))))))))))))))))))))))))))))))))))))))))))))))))))))))))))))))))))))))))))))))))))))))))))))))))))))))))))))))))))))))))))))))))))))
(check-sat)